27	3	3
4	3	5	32	62	38	
0	0	0	0	6	8	3	4	2	4	25	2	3	4	5	6	7	8	9	10	11	12	13	14	15	16	17	18	19	20	21	22	23	24	25	26
4	0	1	1	4	2	2	1	10	6	2	27	19
2	2	0	0	8	10	2	9	6	9	3	27	16	10
4	2	1	1	3	2	10	7	2	9	3	27	19	18
1	0	0	2	7	1	7	10	10	8	4	27	25	15	8
5	2	1	2	1	5	5	4	8	7	2	27	25
2	0	0	1	8	2	8	9	2	8	4	27	9	10	25
3	2	0	0	5	10	7	6	8	3	7	27	23	16	26	14	9	12
4	0	1	0	4	10	4	4	7	5	3	27	23	10
1	0	1	2	3	3	6	10	3	5	6	27	22	23	20	14	21
5	1	1	0	7	4	10	2	8	8	2	27	24
1	0	0	1	9	5	9	7	3	1	4	27	23	25	26
4	2	0	0	4	8	10	1	3	8	3	27	14	23
3	2	0	1	4	7	8	7	10	4	3	27	26	20
5	0	1	1	2	3	7	7	2	10	2	27	16
4	0	1	1	2	8	4	2	10	1	2	27	20
4	1	1	1	9	8	5	7	4	8	2	27	23
1	1	0	1	8	8	5	7	9	8	2	27	20
3	2	1	0	4	2	4	1	9	4	1	27
2	2	1	0	5	10	6	1	7	8	1	27
5	0	0	0	1	9	6	4	10	5	2	27	24
1	2	1	1	4	9	3	9	6	7	3	27	24	25
2	0	1	1	6	3	4	1	9	3	1	27
1	0	1	0	8	3	5	2	4	3	1	27
2	0	1	0	5	8	3	1	9	10	1	27
2	0	0	1	9	10	9	4	3	9	1	27
0	0	0	0	8	7	7	1	5	2	0
